p cnf 308 788
c
c CNF representation of circuit s444 with a subset ofoutputs randomly xor-ed
c Generated by mMsim
c Total gates: 205 Total inputs 24
c
c
p cnf 308 788
c
c Declaration of independent support
c
c ind 1 2 3 4 5 0
c ind 6 7 8 9 10 0
c ind 11 12 13 14 15 0
c ind 16 17 18 19 20 0
c ind 21 22 23 24 0
c
c Gate #26: not (NOT_0): out = 25, in = 1 
25 1 0
-25 -1 0
c Gate #27: not (NOT_1): out = 26, in = 2 
26 2 0
-26 -2 0
c Gate #28: not (NOT_2): out = 27, in = 3 
27 3 0
-27 -3 0
c Gate #29: not (NOT_3): out = 28, in = 4 
28 4 0
-28 -4 0
c Gate #30: not (NOT_4): out = 29, in = 4 
29 4 0
-29 -4 0
c Gate #31: not (NOT_5): out = 30, in = 5 
30 5 0
-30 -5 0
c Gate #32: not (NOT_6): out = 31, in = 13 
31 13 0
-31 -13 0
c Gate #33: not (NOT_7): out = 32, in = 13 
32 13 0
-32 -13 0
c Gate #34: not (NOT_8): out = 33, in = 6 
33 6 0
-33 -6 0
c Gate #35: not (NOT_9): out = 34, in = 14 
34 14 0
-34 -14 0
c Gate #36: not (NOT_10): out = 35, in = 14 
35 14 0
-35 -14 0
c Gate #37: not (NOT_11): out = 36, in = 7 
36 7 0
-36 -7 0
c Gate #38: not (NOT_12): out = 37, in = 15 
37 15 0
-37 -15 0
c Gate #39: not (NOT_13): out = 38, in = 15 
38 15 0
-38 -15 0
c Gate #40: not (NOT_14): out = 39, in = 23 
39 23 0
-39 -23 0
c Gate #41: not (NOT_15): out = 40, in = 8 
40 8 0
-40 -8 0
c Gate #42: not (NOT_16): out = 41, in = 16 
41 16 0
-41 -16 0
c Gate #43: not (NOT_17): out = 42, in = 16 
42 16 0
-42 -16 0
c Gate #44: not (NOT_18): out = 43, in = 24 
43 24 0
-43 -24 0
c Gate #45: not (NOT_19): out = 44, in = 9 
44 9 0
-44 -9 0
c Gate #46: not (NOT_20): out = 45, in = 17 
45 17 0
-45 -17 0
c Gate #47: not (NOT_21): out = 46, in = 10 
46 10 0
-46 -10 0
c Gate #48: not (NOT_22): out = 47, in = 18 
47 18 0
-47 -18 0
c Gate #49: not (NOT_23): out = 48, in = 11 
48 11 0
-48 -11 0
c Gate #50: not (NOT_24): out = 49, in = 19 
49 19 0
-49 -19 0
c Gate #51: not (NOT_25): out = 50, in = 12 
50 12 0
-50 -12 0
c Gate #52: not (NOT_26): out = 51, in = 12 
51 12 0
-51 -12 0
c Gate #53: not (NOT_27): out = 52, in = 20 
52 20 0
-52 -20 0
c Gate #54: not (NOT_28): out = 53, in = 21 
53 21 0
-53 -21 0
c Gate #55: not (NOT_29): out = 54, in = 22 
54 22 0
-54 -22 0
c Gate #56: not (NOT_30): out = 55, in = 25 
55 25 0
-55 -25 0
c Gate #57: not (NOT_31): out = 56, in = 26 
56 26 0
-56 -26 0
c Gate #58: not (NOT_32): out = 57, in = 27 
57 27 0
-57 -27 0
c Gate #59: not (NOT_33): out = 58, in = 28 
58 28 0
-58 -28 0
c Gate #60: not (NOT_34): out = 59, in = 29 
59 29 0
-59 -29 0
c Gate #61: not (NOT_35): out = 60, in = 39 
60 39 0
-60 -39 0
c Gate #62: not (NOT_36): out = 61, in = 47 
61 47 0
-61 -47 0
c Gate #63: not (NOT_37): out = 62, in = 49 
62 49 0
-62 -49 0
c Gate #64: not (NOT_38): out = 63, in = 52 
63 52 0
-63 -52 0
c Gate #65: not (NOT_39): out = 64, in = 55 
64 55 0
-64 -55 0
c Gate #66: not (NOT_40): out = 65, in = 55 
65 55 0
-65 -55 0
c Gate #67: not (NOT_41): out = 66, in = 55 
66 55 0
-66 -55 0
c Gate #68: not (NOT_42): out = 67, in = 56 
67 56 0
-67 -56 0
c Gate #69: not (NOT_43): out = 68, in = 57 
68 57 0
-68 -57 0
c Gate #70: and (AND3_0): out = 69, in = 51 15 65 
-206 51 0
-206 15 0
206 -51 -15 0
-69 206 0
-69 65 0
69 -206 -65 0
c Gate #71: and (AND3_1): out = 70, in = 12 13 65 
-207 12 0
-207 13 0
207 -12 -13 0
-70 207 0
-70 65 0
70 -207 -65 0
c Gate #72: and (AND2_1): out = 71, in = 14 65 
-71 14 0
-71 65 0
71 -14 -65 0
c Gate #73: and (AND2_2): out = 72, in = 17 65 
-72 17 0
-72 65 0
72 -17 -65 0
c Gate #74: or (OR3_0): out = 73, in = 14 15 17 
208 -14 0
208 -15 0
-208 14 15 0
73 -208 0
73 -17 0
-73 208 17 0
c Gate #75: or (OR3_1): out = 74, in = 12 13 42 
209 -12 0
209 -13 0
-209 12 13 0
74 -209 0
74 -42 0
-74 209 42 0
c Gate #76: or (OR2_0): out = 75, in = 38 42 
75 -38 0
75 -42 0
-75 38 42 0
c Gate #77: or (OR4_0): out = 76, in = 51 13 14 17 
210 -51 0
210 -13 0
-210 51 13 0
211 -210 0
211 -14 0
-211 210 14 0
76 -211 0
76 -17 0
-76 211 17 0
c Gate #78: or (OR4_1): out = 77, in = 35 15 42 55 
212 -35 0
212 -15 0
-212 35 15 0
213 -212 0
213 -42 0
-213 212 42 0
77 -213 0
77 -55 0
-77 213 55 0
c Gate #79: or (OR3_2): out = 78, in = 14 38 55 
214 -14 0
214 -38 0
-214 14 38 0
78 -214 0
78 -55 0
-78 214 55 0
c Gate #80: or (OR4_2): out = 79, in = 12 13 38 55 
215 -12 0
215 -13 0
-215 12 13 0
216 -215 0
216 -38 0
-216 215 38 0
79 -216 0
79 -55 0
-79 216 55 0
c Gate #81: or (OR2_1): out = 80, in = 45 55 
80 -45 0
80 -55 0
-80 45 55 0
c Gate #82: or (OR2_2): out = 81, in = 35 55 
81 -35 0
81 -55 0
-81 35 55 0
c Gate #83: or (OR2_3): out = 82, in = 56 24 
82 -56 0
82 -24 0
-82 56 24 0
c Gate #84: or (OR2_4): out = 83, in = 57 16 
83 -57 0
83 -16 0
-83 57 16 0
c Gate #85: or (OR2_5): out = 84, in = 67 43 
84 -67 0
84 -43 0
-84 67 43 0
c Gate #86: or (OR2_6): out = 85, in = 68 41 
85 -68 0
85 -41 0
-85 68 41 0
c Gate #87: nand (NAND2_0): out = 86, in = 29 4 
86 29 0
86 4 0
-86 -29 -4 0
c Gate #88: nand (NAND2_1): out = 87, in = 32 12 
87 32 0
87 12 0
-87 -32 -12 0
c Gate #89: nand (NAND4_0): out = 88, in = 42 38 32 12 
-218 42 0
-218 38 0
218 -42 -38 0
-219 218 0
-219 32 0
219 -218 -32 0
-217 219 0
-217 12 0
217 -219 -12 0
88 217 0
-88 -217 0
c Gate #90: nand (NAND2_2): out = 89, in = 58 5 
89 58 0
89 5 0
-89 -58 -5 0
c Gate #91: nand (NAND2_3): out = 90, in = 59 86 
90 59 0
90 86 0
-90 -59 -86 0
c Gate #92: nand (NAND2_7): out = 91, in = 78 77 
91 78 0
91 77 0
-91 -78 -77 0
c Gate #93: nand (NAND3_0): out = 92, in = 65 73 76 
-221 65 0
-221 73 0
221 -65 -73 0
-220 221 0
-220 76 0
220 -221 -76 0
92 220 0
-92 -220 0
c Gate #94: nand (NAND4_1): out = 93, in = 65 14 75 74 
-223 65 0
-223 14 0
223 -65 -14 0
-224 223 0
-224 75 0
224 -223 -75 0
-222 224 0
-222 74 0
222 -224 -74 0
93 222 0
-93 -222 0
c Gate #95: nand (NAND4_2): out = 94, in = 65 45 35 13 
-226 65 0
-226 45 0
226 -65 -45 0
-227 226 0
-227 35 0
227 -226 -35 0
-225 227 0
-225 13 0
225 -227 -13 0
94 225 0
-94 -225 0
c Gate #96: nand (NAND3_1): out = 95, in = 81 80 79 
-229 81 0
-229 80 0
229 -81 -80 0
-228 229 0
-228 79 0
228 -229 -79 0
95 228 0
-95 -228 0
c Gate #97: nand (NAND2_8): out = 96, in = 89 5 
96 89 0
96 5 0
-96 -89 -5 0
c Gate #98: nand (NAND2_9): out = 97, in = 89 58 
97 89 0
97 58 0
-97 -89 -58 0
c Gate #99: nand (NAND3_2): out = 98, in = 91 32 51 
-231 91 0
-231 32 0
231 -91 -32 0
-230 231 0
-230 51 0
230 -231 -51 0
98 230 0
-98 -230 0
c Gate #100: nand (NAND2_15): out = 99, in = 97 96 
99 97 0
99 96 0
-99 -97 -96 0
c Gate #101: nor (NOR3_0): out = 100, in = 6 5 4 
233 -6 0
233 -5 0
-233 6 5 0
232 -233 0
232 -4 0
-232 233 4 0
100 232 0
-100 -232 0
c Gate #102: nor (NOR3_1): out = 101, in = 10 9 8 
235 -10 0
235 -9 0
-235 10 9 0
234 -235 0
234 -8 0
-234 235 8 0
101 234 0
-101 -234 0
c Gate #103: nor (NOR3_2): out = 102, in = 14 13 12 
237 -14 0
237 -13 0
-237 14 13 0
236 -237 0
236 -12 0
-236 237 12 0
102 236 0
-102 -236 0
c Gate #104: nor (NOR2_0): out = 103, in = 30 28 
-103 -30 0
-103 -28 0
103 30 28 0
c Gate #105: nor (NOR3_3): out = 104, in = 33 30 28 
239 -33 0
239 -30 0
-239 33 30 0
238 -239 0
238 -28 0
-238 239 28 0
104 238 0
-104 -238 0
c Gate #106: nor (NOR2_1): out = 105, in = 100 36 
-105 -100 0
-105 -36 0
105 100 36 0
c Gate #107: nor (NOR4_0): out = 106, in = 55 42 35 13 
241 -55 0
241 -42 0
-241 55 42 0
242 -241 0
242 -35 0
-242 241 35 0
240 -242 0
240 -13 0
-240 242 13 0
106 240 0
-106 -240 0
c Gate #108: nor (NOR2_2): out = 107, in = 55 45 
-107 -55 0
-107 -45 0
107 55 45 0
c Gate #109: nor (NOR2_3): out = 108, in = 105 24 
-108 -105 0
-108 -24 0
108 105 24 0
c Gate #110: nor (NOR2_4): out = 109, in = 108 40 
-109 -108 0
-109 -40 0
109 108 40 0
c Gate #111: nor (NOR3_4): out = 110, in = 108 44 40 
244 -108 0
244 -44 0
-244 108 44 0
243 -244 0
243 -40 0
-243 244 40 0
110 243 0
-110 -243 0
c Gate #112: nor (NOR4_1): out = 111, in = 108 46 44 40 
246 -108 0
246 -46 0
-246 108 46 0
247 -246 0
247 -44 0
-247 246 44 0
245 -247 0
245 -40 0
-245 247 40 0
111 245 0
-111 -245 0
c Gate #113: nor (NOR3_5): out = 112, in = 101 108 48 
249 -101 0
249 -108 0
-249 101 108 0
248 -249 0
248 -48 0
-248 249 48 0
112 248 0
-112 -248 0
c Gate #114: nor (NOR4_2): out = 113, in = 72 71 70 69 
251 -72 0
251 -71 0
-251 72 71 0
252 -251 0
252 -70 0
-252 251 70 0
250 -252 0
250 -69 0
-250 252 69 0
113 250 0
-113 -250 0
c Gate #115: nor (NOR2_6): out = 114, in = 94 51 
-114 -94 0
-114 -51 0
114 94 51 0
c Gate #116: and (AND2_0): out = 115, in = 88 17 
-115 88 0
-115 17 0
115 -88 -17 0
c Gate #117: not (NOT_44): out = 116, in = 90 
116 90 0
-116 -90 0
c Gate #118: not (NOT_45): out = 117, in = 108 
117 108 0
-117 -108 0
c Gate #119: not (NOT_46): out = 118, in = 112 
118 112 0
-118 -112 0
c Gate #120: nand (NAND2_4): out = 119, in = 103 6 
119 103 0
119 6 0
-119 -103 -6 0
c Gate #121: nand (NAND2_5): out = 120, in = 104 7 
120 104 0
120 7 0
-120 -104 -7 0
c Gate #122: nand (NAND2_6): out = 121, in = 106 51 
121 106 0
121 51 0
-121 -106 -51 0
c Gate #123: not (NOT_47): out = 122, in = 99 
122 99 0
-122 -99 0
c Gate #124: and (AND2_3): out = 123, in = 84 82 
-123 84 0
-123 82 0
123 -84 -82 0
c Gate #125: and (AND2_4): out = 124, in = 85 83 
-124 85 0
-124 83 0
124 -85 -83 0
c Gate #126: and (AND2_5): out = 125, in = 66 123 
-125 66 0
-125 123 0
125 -66 -123 0
c Gate #127: and (AND2_6): out = 126, in = 64 124 
-126 64 0
-126 124 0
126 -64 -124 0
c Gate #128: nand (NAND2_10): out = 127, in = 119 6 
127 119 0
127 6 0
-127 -119 -6 0
c Gate #129: nand (NAND2_11): out = 128, in = 119 103 
128 119 0
128 103 0
-128 -119 -103 0
c Gate #130: nand (NAND2_13): out = 129, in = 120 7 
129 120 0
129 7 0
-129 -120 -7 0
c Gate #131: nand (NAND2_14): out = 130, in = 120 104 
130 120 0
130 104 0
-130 -120 -104 0
c Gate #132: nand (NAND2_16): out = 131, in = 128 127 
131 128 0
131 127 0
-131 -128 -127 0
c Gate #133: nand (NAND2_18): out = 132, in = 130 129 
132 130 0
132 129 0
-132 -130 -129 0
c Gate #134: nand (NAND2_19): out = 133, in = 117 8 
133 117 0
133 8 0
-133 -117 -8 0
c Gate #135: nand (NAND2_20): out = 134, in = 109 9 
134 109 0
134 9 0
-134 -109 -9 0
c Gate #136: nand (NAND2_21): out = 135, in = 110 10 
135 110 0
135 10 0
-135 -110 -10 0
c Gate #137: nand (NAND2_22): out = 136, in = 111 11 
136 111 0
136 11 0
-136 -111 -11 0
c Gate #138: nand (NAND2_24): out = 137, in = 133 8 
137 133 0
137 8 0
-137 -133 -8 0
c Gate #139: nand (NAND2_25): out = 138, in = 133 117 
138 133 0
138 117 0
-138 -133 -117 0
c Gate #140: nand (NAND2_26): out = 139, in = 134 9 
139 134 0
139 9 0
-139 -134 -9 0
c Gate #141: nand (NAND2_27): out = 140, in = 134 109 
140 134 0
140 109 0
-140 -134 -109 0
c Gate #142: nand (NAND2_28): out = 141, in = 135 10 
141 135 0
141 10 0
-141 -135 -10 0
c Gate #143: nand (NAND2_29): out = 142, in = 135 110 
142 135 0
142 110 0
-142 -135 -110 0
c Gate #144: nand (NAND2_30): out = 143, in = 136 11 
143 136 0
143 11 0
-143 -136 -11 0
c Gate #145: nand (NAND2_31): out = 144, in = 136 111 
144 136 0
144 111 0
-144 -136 -111 0
c Gate #146: nand (NAND2_32): out = 145, in = 138 137 
145 138 0
145 137 0
-145 -138 -137 0
c Gate #147: nand (NAND2_33): out = 146, in = 140 139 
146 140 0
146 139 0
-146 -140 -139 0
c Gate #148: nand (NAND2_34): out = 147, in = 142 141 
147 142 0
147 141 0
-147 -142 -141 0
c Gate #149: nand (NAND2_35): out = 148, in = 144 143 
148 144 0
148 143 0
-148 -144 -143 0
c Gate #150: not (NOT_48): out = 149, in = 131 
149 131 0
-149 -131 0
c Gate #151: not (NOT_51): out = 150, in = 132 
150 132 0
-150 -132 0
c Gate #152: not (NOT_52): out = 151, in = 118 
151 118 0
-151 -118 0
c Gate #153: not (NOT_54): out = 152, in = 145 
152 145 0
-152 -145 0
c Gate #154: not (NOT_55): out = 153, in = 146 
153 146 0
-153 -146 0
c Gate #155: not (NOT_56): out = 154, in = 147 
154 147 0
-154 -147 0
c Gate #156: not (NOT_57): out = 155, in = 148 
155 148 0
-155 -148 0
c Gate #157: or (OR4_3): out = 156, in = 87 16 15 35 
253 -87 0
253 -16 0
-253 87 16 0
254 -253 0
254 -15 0
-254 253 15 0
156 -254 0
156 -35 0
-156 254 35 0
c Gate #158: nor (NOR2_5): out = 157, in = 93 115 
-157 -93 0
-157 -115 0
157 93 115 0
c Gate #159: nor (NOR3_6): out = 158, in = 55 116 105 
256 -55 0
256 -116 0
-256 55 116 0
255 -256 0
255 -105 0
-255 256 105 0
158 255 0
-158 -255 0
c Gate #160: nor (NOR2_7): out = 159, in = 118 50 
-159 -118 0
-159 -50 0
159 118 50 0
c Gate #161: nor (NOR3_7): out = 160, in = 118 31 50 
258 -118 0
258 -31 0
-258 118 31 0
257 -258 0
257 -50 0
-257 258 50 0
160 257 0
-160 -257 0
c Gate #162: nor (NOR3_8): out = 161, in = 102 118 37 
260 -102 0
260 -118 0
-260 102 118 0
259 -260 0
259 -37 0
-259 260 37 0
161 259 0
-161 -259 0
c Gate #163: nor (NOR4_3): out = 162, in = 118 34 31 50 
262 -118 0
262 -34 0
-262 118 34 0
263 -262 0
263 -31 0
-263 262 31 0
261 -263 0
261 -50 0
-261 263 50 0
162 261 0
-162 -261 0
c Gate #164: nor (NOR3_9): out = 163, in = 55 122 105 
265 -55 0
265 -122 0
-265 55 122 0
264 -265 0
264 -105 0
-264 265 105 0
163 264 0
-163 -264 0
c Gate #165: nor (NOR3_10): out = 164, in = 55 149 105 
267 -55 0
267 -149 0
-267 55 149 0
266 -267 0
266 -105 0
-266 267 105 0
164 266 0
-164 -266 0
c Gate #166: nor (NOR3_11): out = 165, in = 55 150 105 
269 -55 0
269 -150 0
-269 55 150 0
268 -269 0
268 -105 0
-268 269 105 0
165 268 0
-165 -268 0
c Gate #167: nor (NOR3_12): out = 166, in = 55 152 112 
271 -55 0
271 -152 0
-271 55 152 0
270 -271 0
270 -112 0
-270 271 112 0
166 270 0
-166 -270 0
c Gate #168: nor (NOR3_13): out = 167, in = 55 153 112 
273 -55 0
273 -153 0
-273 55 153 0
272 -273 0
272 -112 0
-272 273 112 0
167 272 0
-167 -272 0
c Gate #169: nor (NOR3_14): out = 168, in = 55 154 112 
275 -55 0
275 -154 0
-275 55 154 0
274 -275 0
274 -112 0
-274 275 112 0
168 274 0
-168 -274 0
c Gate #170: nor (NOR3_15): out = 169, in = 55 155 112 
277 -55 0
277 -155 0
-277 55 155 0
276 -277 0
276 -112 0
-276 277 112 0
169 276 0
-169 -276 0
c Gate #171: nand (NAND2_12): out = 170, in = 107 156 
170 107 0
170 156 0
-170 -107 -156 0
c Gate #172: nand (NAND2_23): out = 171, in = 170 98 
171 170 0
171 98 0
-171 -170 -98 0
c Gate #173: nand (NAND2_17): out = 172, in = 170 121 
172 170 0
172 121 0
-172 -170 -121 0
c Gate #174: and (AND3_2): out = 173, in = 172 95 46 
-278 172 0
-278 95 0
278 -172 -95 0
-173 278 0
-173 46 0
173 -278 -46 0
c Gate #175: and (AND3_3): out = 174, in = 172 171 46 
-279 172 0
-279 171 0
279 -172 -171 0
-174 279 0
-174 46 0
174 -279 -46 0
c Gate #176: nand (NAND2_36): out = 175, in = 151 12 
175 151 0
175 12 0
-175 -151 -12 0
c Gate #177: nand (NAND2_37): out = 176, in = 159 13 
176 159 0
176 13 0
-176 -159 -13 0
c Gate #178: nand (NAND2_38): out = 177, in = 160 14 
177 160 0
177 14 0
-177 -160 -14 0
c Gate #179: nand (NAND2_39): out = 178, in = 162 15 
178 162 0
178 15 0
-178 -162 -15 0
c Gate #180: nand (NAND2_40): out = 179, in = 175 12 
179 175 0
179 12 0
-179 -175 -12 0
c Gate #181: nand (NAND2_41): out = 180, in = 175 151 
180 175 0
180 151 0
-180 -175 -151 0
c Gate #182: nand (NAND2_42): out = 181, in = 176 13 
181 176 0
181 13 0
-181 -176 -13 0
c Gate #183: nand (NAND2_43): out = 182, in = 176 159 
182 176 0
182 159 0
-182 -176 -159 0
c Gate #184: nand (NAND2_44): out = 183, in = 177 14 
183 177 0
183 14 0
-183 -177 -14 0
c Gate #185: nand (NAND2_45): out = 184, in = 177 160 
184 177 0
184 160 0
-184 -177 -160 0
c Gate #186: nand (NAND2_46): out = 185, in = 178 15 
185 178 0
185 15 0
-185 -178 -15 0
c Gate #187: nand (NAND2_47): out = 186, in = 178 162 
186 178 0
186 162 0
-186 -178 -162 0
c Gate #188: nand (NAND2_48): out = 187, in = 180 179 
187 180 0
187 179 0
-187 -180 -179 0
c Gate #189: nand (NAND2_49): out = 188, in = 182 181 
188 182 0
188 181 0
-188 -182 -181 0
c Gate #190: not (NOT_49): out = 189, in = 172 
189 172 0
-189 -172 0
c Gate #191: not (NOT_50): out = 190, in = 172 
190 172 0
-190 -172 0
c Gate #192: and (AND2_7): out = 191, in = 190 95 
-191 190 0
-191 95 0
191 -190 -95 0
c Gate #193: and (AND2_8): out = 192, in = 190 171 
-192 190 0
-192 171 0
192 -190 -171 0
c Gate #194: not (NOT_58): out = 193, in = 187 
193 187 0
-193 -187 0
c Gate #195: nand (NAND2_51): out = 194, in = 186 185 
194 186 0
194 185 0
-194 -186 -185 0
c Gate #196: not (NOT_59): out = 195, in = 188 
195 188 0
-195 -188 0
c Gate #197: nor (NOR2_8): out = 196, in = 191 173 
-196 -191 0
-196 -173 0
196 191 173 0
c Gate #198: nor (NOR2_9): out = 197, in = 192 174 
-197 -192 0
-197 -174 0
197 192 174 0
c Gate #199: nand (NAND2_50): out = 198, in = 184 183 
198 184 0
198 183 0
-198 -184 -183 0
c Gate #200: not (NOT_60): out = 199, in = 198 
199 198 0
-199 -198 0
c Gate #201: not (NOT_61): out = 200, in = 194 
200 194 0
-200 -194 0
c Gate #202: not (NOT_53): out = 201, in = 189 
201 189 0
-201 -189 0
c Gate #203: nor (NOR3_16): out = 202, in = 55 193 161 
281 -55 0
281 -193 0
-281 55 193 0
280 -281 0
280 -161 0
-280 281 161 0
202 280 0
-202 -280 0
c Gate #204: nor (NOR3_17): out = 203, in = 55 195 161 
283 -55 0
283 -195 0
-283 55 195 0
282 -283 0
282 -161 0
-282 283 161 0
203 282 0
-203 -282 0
c Gate #205: nor (NOR3_18): out = 204, in = 55 199 161 
285 -55 0
285 -199 0
-285 55 199 0
284 -285 0
284 -161 0
-284 285 161 0
204 284 0
-204 -284 0
c Gate #206: nor (NOR3_19): out = 205, in = 55 200 161 
287 -55 0
287 -200 0
-287 55 200 0
286 -287 0
286 -161 0
-286 287 161 0
205 286 0
-205 -286 0
c
c Random XOR constraints start here
c
-288 205 202 0
-288 -205 -202 0
288 -205 202 0
288 205 -202 0
-289 288 166 0
-289 -288 -166 0
289 -288 166 0
289 288 -166 0
-290 289 197 0
-290 -289 -197 0
290 -289 197 0
290 289 -197 0
290 0
c Rand xor clause 1 with 4 lits
-291 205 202 0
-291 -205 -202 0
291 -205 202 0
291 205 -202 0
-292 291 166 0
-292 -291 -166 0
292 -291 166 0
292 291 -166 0
-293 292 197 0
-293 -292 -197 0
293 -292 197 0
293 292 -197 0
293 0
c Rand xor clause 2 with 4 lits
-294 205 202 0
-294 -205 -202 0
294 -205 202 0
294 205 -202 0
-295 294 166 0
-295 -294 -166 0
295 -294 166 0
295 294 -166 0
-296 295 197 0
-296 -295 -197 0
296 -295 197 0
296 295 -197 0
296 0
c Rand xor clause 3 with 4 lits
-297 205 202 0
-297 -205 -202 0
297 -205 202 0
297 205 -202 0
-298 297 166 0
-298 -297 -166 0
298 -297 166 0
298 297 -166 0
-299 298 197 0
-299 -298 -197 0
299 -298 197 0
299 298 -197 0
299 0
c Rand xor clause 4 with 4 lits
-300 205 202 0
-300 -205 -202 0
300 -205 202 0
300 205 -202 0
-301 300 166 0
-301 -300 -166 0
301 -300 166 0
301 300 -166 0
-302 301 197 0
-302 -301 -197 0
302 -301 197 0
302 301 -197 0
302 0
c Rand xor clause 5 with 4 lits
-303 205 202 0
-303 -205 -202 0
303 -205 202 0
303 205 -202 0
-304 303 166 0
-304 -303 -166 0
304 -303 166 0
304 303 -166 0
-305 304 197 0
-305 -304 -197 0
305 -304 197 0
305 304 -197 0
305 0
c Rand xor clause 6 with 4 lits
-306 205 202 0
-306 -205 -202 0
306 -205 202 0
306 205 -202 0
-307 306 166 0
-307 -306 -166 0
307 -306 166 0
307 306 -166 0
-308 307 197 0
-308 -307 -197 0
308 -307 197 0
308 307 -197 0
308 0
c Rand xor clause 7 with 4 lits
